z3/58.smt2
 (set-logic HORN)
     (declare-fun inv (Int Int) Bool)
     ; Initial condition
     (assert (forall ((c Int)(n Int)) (=> (and (= c 0) (> n 0)) (inv c n))))
     ; Transition relation
     (assert (forall ((c Int)(n Int)(c1 Int)) (=> (and (inv c n) (not (= c n)) (= c1 (+ c 1))) (inv c1 n))))
     (assert (forall ((c Int)(n Int)(c1 Int)) (=> (and (inv c n) (= c n) (= c1 1)) (inv c1 n))))
     ; Property
     (assert (forall ((c Int)(n Int)) (=> (and (inv c n) (not (= c n))) (>= c 0))))
     (check-sat)
     (get-model)