local_stuff/boogie_stuff/boogie_experiment/Archive/boogie_prev/58.out
STDOUT:
boogie_fixed/58.bpl(17,9): Error: this invariant could not be proved to be maintained by the loop
Execution trace:
    boogie_fixed/58.bpl(11,12): anon0
    boogie_fixed/58.bpl(15,9): anon8_LoopHead
    boogie_fixed/58.bpl(20,13): anon8_LoopBody
    boogie_fixed/58.bpl(22,17): anon9_Then
    boogie_fixed/58.bpl(23,24): anon10_Then
boogie_fixed/58.bpl(18,9): Error: this invariant could not be proved to be maintained by the loop
Execution trace:
    boogie_fixed/58.bpl(11,12): anon0
    boogie_fixed/58.bpl(15,9): anon8_LoopHead
    boogie_fixed/58.bpl(20,13): anon8_LoopBody
    boogie_fixed/58.bpl(22,17): anon9_Then
    boogie_fixed/58.bpl(23,24): anon10_Then

Boogie program verifier finished with 0 verified, 2 errors


STDERR:
